
<<< setup


<<< generate

Version identifier: 22.1.1.0 | 2022-11-28 | 9160aff4d
CPXPARAM_TimeLimit                               1800
Found incumbent of value 0.000000 after 0.09 sec. (137.52 ticks)
Presolve has eliminated 5169112 rows and 43450 columns...
Presolve has improved bounds 5113 times...
Aggregator has done 5114 substitutions...
Aggregator has done 15444 substitutions...
Aggregator has done 20440 substitutions...
Aggregator has done 30432 substitutions...
Aggregator has done 35428 substitutions...
Aggregator has done 45420 substitutions...
Aggregator has done 50416 substitutions...
Aggregator has done 60408 substitutions...
Aggregator has done 65404 substitutions...
Aggregator has done 75396 substitutions...
Aggregator has done 80392 substitutions...
Aggregator has done 90384 substitutions...
Aggregator has done 95380 substitutions...
Aggregator has done 105372 substitutions...
Aggregator has done 110368 substitutions...
Aggregator has done 120360 substitutions...
Aggregator has done 125356 substitutions...
Aggregator has done 135348 substitutions...
Aggregator has done 140344 substitutions...
Tried aggregator 30 times.
Aggregator has done 145340 substitutions...
MIP Presolve eliminated 9718358 rows and 43450 columns.
MIP Presolve added 114 rows and 114 columns.
MIP Presolve modified 45617 coefficients.
Aggregator did 145340 substitutions.
Reduced MIP has 9182227 rows, 951324 columns, and 24516370 nonzeros.
Reduced MIP has 951324 binaries, 0 generals, 0 SOSs, and 0 indicators.
Presolve time = 436.09 sec. (829566.61 ticks)
Probing time = 3.97 sec. (809.34 ticks)
Aggregator has done 4996 substitutions...
Aggregator has done 44490 substitutions...
Aggregator has done 53686 substitutions...
Aggregator has done 62882 substitutions...
Aggregator has done 72078 substitutions...
Aggregator has done 81274 substitutions...
Aggregator has done 85872 substitutions...
Aggregator has done 92134 substitutions...
Aggregator has done 99666 substitutions...
Aggregator has done 104264 substitutions...
Aggregator has done 110499 substitutions...
Aggregator has done 118058 substitutions...
Aggregator has done 122656 substitutions...
Aggregator has done 130161 substitutions...
Aggregator has done 132159 substitutions...
Aggregator has done 136155 substitutions...
Aggregator has done 140151 substitutions...
Aggregator has done 144147 substitutions...
Tried aggregator 30 times.
Aggregator has done 146145 substitutions...
MIP Presolve eliminated 719949 rows and 0 columns.
MIP Presolve modified 8168 coefficients.
Aggregator did 146145 substitutions.
Reduced MIP has 8316133 rows, 805179 columns, and 23460383 nonzeros.
Reduced MIP has 805179 binaries, 0 generals, 0 SOSs, and 0 indicators.
Presolve time = 322.52 sec. (660993.98 ticks)
Probing time = 2.55 sec. (678.35 ticks)
Aggregator has done 4598 substitutions...
Aggregator has done 20641 substitutions...
Aggregator has done 28509 substitutions...
Aggregator has done 32933 substitutions...
Aggregator has done 39053 substitutions...
Aggregator has done 46205 substitutions...
Aggregator has done 52304 substitutions...
Aggregator has done 57629 substitutions...
Aggregator has done 60105 substitutions...
Aggregator has done 64531 substitutions...
Aggregator has done 67383 substitutions...
Aggregator has done 71808 substitutions...
Aggregator has done 74661 substitutions...
Aggregator has done 78936 substitutions...
Aggregator has done 80490 substitutions...
Tried aggregator 22 times.
Aggregator has done 80490 substitutions...
Detecting symmetries...
MIP Presolve eliminated 537184 rows and 0 columns.
MIP Presolve modified 6860 coefficients.
Aggregator did 80490 substitutions.
Reduced MIP has 7698459 rows, 724689 columns, and 22734903 nonzeros.
Reduced MIP has 724689 binaries, 0 generals, 0 SOSs, and 0 indicators.
Presolve time = 264.61 sec. (580604.97 ticks)
Probing time = 2.45 sec. (636.00 ticks)
Clique table members: 8465885.
MIP emphasis: balance optimality and feasibility.
MIP search method: dynamic search.
Parallel mode: deterministic, using up to 8 threads.
